%As
as_len = 10;
as = array2d(1..as_len,1..2,[
247,185,
284,465,
97,576,
19,552,
623,664,
429,352,
317,645,
17,29,
494,91,
755,605,
]);
% Makespan
makespan = 50;
% Rel:
rel_len = 820;
rel = [
{1,2,23}, %	1
{2,3,1,24}, %	2
{3,4,2,25}, %	3
{4,5,3,26}, %	4
{5,4,27}, %	5
{6,7,29}, %	6
{7,6,30}, %	7
{8,32}, %	8
{9,10,34}, %	9
{10,11,9,35}, %	10
{11,10,36}, %	11
{12,13,38}, %	12
{13,14,12,39}, %	13
{14,15,13,40}, %	14
{15,14,41}, %	15
{16,43}, %	16
{17,45}, %	17
{18,19,46}, %	18
{19,20,18}, %	19
{20,19,47}, %	20
{21,49}, %	21
{22,51}, %	22
{23,24,1,52}, %	23
{24,25,23,2,53}, %	24
{25,26,24,3,54}, %	25
{26,27,25,4}, %	26
{27,28,26,5,55}, %	27
{28,29,27,56}, %	28
{29,30,28,6,57}, %	29
{30,31,29,7,58}, %	30
{31,32,30}, %	31
{32,33,31,8,59}, %	32
{33,34,32,60}, %	33
{34,35,33,9}, %	34
{35,36,34,10,61}, %	35
{36,37,35,11,62}, %	36
{37,38,36,63}, %	37
{38,39,37,12,64}, %	38
{39,40,38,13,65}, %	39
{40,41,39,14,66}, %	40
{41,42,40,15,67}, %	41
{42,43,41,68}, %	42
{43,44,42,16,69}, %	43
{44,45,43,70}, %	44
{45,44,17,71}, %	45
{46,18,73}, %	46
{47,48,20,74}, %	47
{48,49,47,75}, %	48
{49,48,21,76}, %	49
{50,51}, %	50
{51,50,22,78}, %	51
{52,53,23,79}, %	52
{53,54,52,24}, %	53
{54,53,25,80}, %	54
{55,56,27,82}, %	55
{56,57,55,28}, %	56
{57,58,56,29,83}, %	57
{58,57,30,84}, %	58
{59,60,32,86}, %	59
{60,59,33,87}, %	60
{61,62,35}, %	61
{62,63,61,36,88}, %	62
{63,64,62,37,89}, %	63
{64,65,63,38,90}, %	64
{65,66,64,39,91}, %	65
{66,67,65,40,92}, %	66
{67,68,66,41,93}, %	67
{68,69,67,42,94}, %	68
{69,70,68,43,95}, %	69
{70,71,69,44}, %	70
{71,72,70,45,96}, %	71
{72,73,71,97}, %	72
{73,72,46,98}, %	73
{74,75,47,100}, %	74
{75,76,74,48,101}, %	75
{76,77,75,49,102}, %	76
{77,76,103}, %	77
{78,51}, %	78
{79,52,105}, %	79
{80,81,54,107}, %	80
{81,82,80,108}, %	81
{82,81,55,109}, %	82
{83,84,57,111}, %	83
{84,85,83,58}, %	84
{85,86,84}, %	85
{86,87,85,59,112}, %	86
{87,86,60}, %	87
{88,89,62}, %	88
{89,90,88,63,115}, %	89
{90,91,89,64,116}, %	90
{91,92,90,65,117}, %	91
{92,93,91,66,118}, %	92
{93,94,92,67,119}, %	93
{94,95,93,68,120}, %	94
{95,94,69}, %	95
{96,97,71,122}, %	96
{97,98,96,72,123}, %	97
{98,99,97,73}, %	98
{99,100,98,124}, %	99
{100,101,99,74,125}, %	100
{101,102,100,75,126}, %	101
{102,103,101,76}, %	102
{103,104,102,77,127}, %	103
{104,103,128}, %	104
{105,106,79,130}, %	105
{106,107,105,131}, %	106
{107,108,106,80}, %	107
{108,109,107,81,132}, %	108
{109,110,108,82,133}, %	109
{110,111,109,134}, %	110
{111,110,83}, %	111
{112,86,137}, %	112
{113,114,139}, %	113
{114,113,140}, %	114
{115,116,89,142}, %	115
{116,117,115,90,143}, %	116
{117,118,116,91,144}, %	117
{118,119,117,92}, %	118
{119,120,118,93}, %	119
{120,119,94,145}, %	120
{121,122}, %	121
{122,123,121,96,147}, %	122
{123,122,97,148}, %	123
{124,125,99,150}, %	124
{125,126,124,100,151}, %	125
{126,125,101}, %	126
{127,128,103,153}, %	127
{128,129,127,104,154}, %	128
{129,128,155}, %	129
{130,131,105,156}, %	130
{131,130,106,157}, %	131
{132,133,108,159}, %	132
{133,134,132,109,160}, %	133
{134,133,110,161}, %	134
{135,136,163}, %	135
{136,137,135,164}, %	136
{137,138,136,112,165}, %	137
{138,139,137,166}, %	138
{139,140,138,113,167}, %	139
{140,141,139,114,168}, %	140
{141,142,140,169}, %	141
{142,143,141,115,170}, %	142
{143,144,142,116,171}, %	143
{144,143,117,172}, %	144
{145,146,120,175}, %	145
{146,145,176}, %	146
{147,148,122,178}, %	147
{148,149,147,123,179}, %	148
{149,150,148}, %	149
{150,151,149,124}, %	150
{151,150,125,180}, %	151
{152,153,182}, %	152
{153,154,152,127,183}, %	153
{154,155,153,128}, %	154
{155,154,129}, %	155
{156,157,130}, %	156
{157,158,156,131}, %	157
{158,159,157,184}, %	158
{159,160,158,132,185}, %	159
{160,161,159,133,186}, %	160
{161,162,160,134,187}, %	161
{162,163,161,188}, %	162
{163,164,162,135,189}, %	163
{164,165,163,136}, %	164
{165,166,164,137,190}, %	165
{166,167,165,138}, %	166
{167,168,166,139,191}, %	167
{168,169,167,140}, %	168
{169,170,168,141,192}, %	169
{170,171,169,142}, %	170
{171,172,170,143,193}, %	171
{172,173,171,144}, %	172
{173,174,172}, %	173
{174,175,173,194}, %	174
{175,176,174,145}, %	175
{176,177,175,146,195}, %	176
{177,178,176,196}, %	177
{178,179,177,147}, %	178
{179,178,148,197}, %	179
{180,181,151,200}, %	180
{181,182,180}, %	181
{182,183,181,152,201}, %	182
{183,182,153}, %	183
{184,185,158,206}, %	184
{185,186,184,159,207}, %	185
{186,187,185,160,208}, %	186
{187,188,186,161,209}, %	187
{188,189,187,162,210}, %	188
{189,188,163,211}, %	189
{190,165,212}, %	190
{191,167,214}, %	191
{192,169,216}, %	192
{193,171,217}, %	193
{194,174,220}, %	194
{195,196,176}, %	195
{196,195,177,222}, %	196
{197,198,179,224}, %	197
{198,199,197,225}, %	198
{199,200,198}, %	199
{200,199,180,226}, %	200
{201,182,228}, %	201
{202,203,230}, %	202
{203,202,231}, %	203
{204,205,232}, %	204
{205,206,204,233}, %	205
{206,207,205,184,234}, %	206
{207,208,206,185,235}, %	207
{208,209,207,186,236}, %	208
{209,210,208,187,237}, %	209
{210,211,209,188,238}, %	210
{211,210,189,239}, %	211
{212,213,190,241}, %	212
{213,214,212,242}, %	213
{214,215,213,191,243}, %	214
{215,216,214,244}, %	215
{216,215,192,245}, %	216
{217,218,193,247}, %	217
{218,219,217,248}, %	218
{219,220,218,249}, %	219
{220,221,219,194,250}, %	220
{221,220,251}, %	221
{222,223,196,253}, %	222
{223,224,222,254}, %	223
{224,225,223,197}, %	224
{225,224,198,255}, %	225
{226,227,200,257}, %	226
{227,228,226,258}, %	227
{228,229,227,201,259}, %	228
{229,230,228}, %	229
{230,231,229,202,260}, %	230
{231,230,203,261}, %	231
{232,233,204,262}, %	232
{233,234,232,205}, %	233
{234,235,233,206}, %	234
{235,236,234,207,263}, %	235
{236,237,235,208,264}, %	236
{237,238,236,209,265}, %	237
{238,239,237,210,266}, %	238
{239,240,238,211,267}, %	239
{240,241,239,268}, %	240
{241,242,240,212,269}, %	241
{242,243,241,213,270}, %	242
{243,244,242,214,271}, %	243
{244,245,243,215,272}, %	244
{245,246,244,216,273}, %	245
{246,247,245}, %	246
{247,248,246,217,274}, %	247
{248,249,247,218,275}, %	248
{249,250,248,219}, %	249
{250,251,249,220,276}, %	250
{251,252,250,221,277}, %	251
{252,253,251}, %	252
{253,254,252,222}, %	253
{254,253,223}, %	254
{255,256,225,279}, %	255
{256,257,255,280}, %	256
{257,258,256,226,281}, %	257
{258,259,257,227}, %	258
{259,258,228,282}, %	259
{260,261,230,284}, %	260
{261,260,231,285}, %	261
{262,232,286}, %	262
{263,264,235,288}, %	263
{264,265,263,236,289}, %	264
{265,266,264,237}, %	265
{266,267,265,238}, %	266
{267,268,266,239}, %	267
{268,269,267,240}, %	268
{269,270,268,241,290}, %	269
{270,271,269,242,291}, %	270
{271,272,270,243,292}, %	271
{272,273,271,244,293}, %	272
{273,272,245,294}, %	273
{274,275,247}, %	274
{275,274,248}, %	275
{276,277,250,297}, %	276
{277,276,251}, %	277
{278,279,301}, %	278
{279,280,278,255,302}, %	279
{280,281,279,256,303}, %	280
{281,280,257,304}, %	281
{282,283,259,306}, %	282
{283,284,282,307}, %	283
{284,285,283,260,308}, %	284
{285,284,261,309}, %	285
{286,262,310}, %	286
{287,288,311}, %	287
{288,289,287,263,312}, %	288
{289,288,264,313}, %	289
{290,291,269}, %	290
{291,292,290,270,317}, %	291
{292,293,291,271,318}, %	292
{293,294,292,272}, %	293
{294,295,293,273,319}, %	294
{295,294,320}, %	295
{296,297,323}, %	296
{297,296,276}, %	297
{298,299,325}, %	298
{299,300,298,326}, %	299
{300,301,299,327}, %	300
{301,302,300,278,328}, %	301
{302,303,301,279,329}, %	302
{303,304,302,280,330}, %	303
{304,305,303,281,331}, %	304
{305,306,304}, %	305
{306,307,305,282,332}, %	306
{307,308,306,283,333}, %	307
{308,309,307,284}, %	308
{309,308,285,334}, %	309
{310,286,335}, %	310
{311,312,287,337}, %	311
{312,313,311,288,338}, %	312
{313,314,312,289,339}, %	313
{314,315,313,340}, %	314
{315,314}, %	315
{316}, %	316
{317,318,291}, %	317
{318,317,292}, %	318
{319,320,294,343}, %	319
{320,321,319,295,344}, %	320
{321,322,320,345}, %	321
{322,323,321}, %	322
{323,322,296,346}, %	323
{324,325,348}, %	324
{325,326,324,298,349}, %	325
{326,327,325,299,350}, %	326
{327,328,326,300,351}, %	327
{328,329,327,301}, %	328
{329,330,328,302,352}, %	329
{330,331,329,303,353}, %	330
{331,330,304,354}, %	331
{332,333,306,356}, %	332
{333,332,307}, %	333
{334,309,358}, %	334
{335,336,310}, %	335
{336,337,335}, %	336
{337,338,336,311,359}, %	337
{338,339,337,312,360}, %	338
{339,340,338,313,361}, %	339
{340,339,314,362}, %	340
{341,364}, %	341
{342,366}, %	342
{343,344,319,370}, %	343
{344,345,343,320}, %	344
{345,344,321,371}, %	345
{346,347,323,373}, %	346
{347,348,346,374}, %	347
{348,349,347,324,375}, %	348
{349,350,348,325,376}, %	349
{350,351,349,326,377}, %	350
{351,350,327,378}, %	351
{352,353,329}, %	352
{353,354,352,330,380}, %	353
{354,355,353,331}, %	354
{355,356,354,381}, %	355
{356,355,332,382}, %	356
{357,358,383}, %	357
{358,357,334,384}, %	358
{359,360,337,387}, %	359
{360,361,359,338,388}, %	360
{361,362,360,339,389}, %	361
{362,363,361,340}, %	362
{363,364,362,390}, %	363
{364,365,363,341,391}, %	364
{365,366,364,392}, %	365
{366,367,365,342}, %	366
{367,368,366,393}, %	367
{368,369,367,394}, %	368
{369,370,368,395}, %	369
{370,369,343,396}, %	370
{371,372,345,398}, %	371
{372,373,371}, %	372
{373,374,372,346,399}, %	373
{374,375,373,347,400}, %	374
{375,376,374,348,401}, %	375
{376,377,375,349,402}, %	376
{377,378,376,350,403}, %	377
{378,379,377,351,404}, %	378
{379,378,405}, %	379
{380,353,407}, %	380
{381,382,355}, %	381
{382,381,356}, %	382
{383,384,357,410}, %	383
{384,383,358,411}, %	384
{385,386,412}, %	385
{386,387,385,413}, %	386
{387,388,386,359}, %	387
{388,389,387,360}, %	388
{389,388,361,414}, %	389
{390,391,363}, %	390
{391,392,390,364}, %	391
{392,391,365,416}, %	392
{393,394,367,418}, %	393
{394,395,393,368,419}, %	394
{395,396,394,369,420}, %	395
{396,397,395,370}, %	396
{397,398,396,421}, %	397
{398,397,371,422}, %	398
{399,400,373,423}, %	399
{400,401,399,374,424}, %	400
{401,402,400,375,425}, %	401
{402,403,401,376,426}, %	402
{403,404,402,377,427}, %	403
{404,405,403,378,428}, %	404
{405,406,404,379,429}, %	405
{406,407,405,430}, %	406
{407,408,406,380,431}, %	407
{408,407,432}, %	408
{409,410}, %	409
{410,411,409,383,435}, %	410
{411,410,384,436}, %	411
{412,413,385,437}, %	412
{413,412,386,438}, %	413
{414,415,389}, %	414
{415,414,440}, %	415
{416,417,392,443}, %	416
{417,418,416,444}, %	417
{418,419,417,393,445}, %	418
{419,420,418,394,446}, %	419
{420,419,395,447}, %	420
{421,422,397,449}, %	421
{422,421,398,450}, %	422
{423,424,399,451}, %	423
{424,425,423,400}, %	424
{425,426,424,401,452}, %	425
{426,427,425,402,453}, %	426
{427,428,426,403,454}, %	427
{428,429,427,404,455}, %	428
{429,430,428,405,456}, %	429
{430,431,429,406,457}, %	430
{431,432,430,407,458}, %	431
{432,433,431,408}, %	432
{433,434,432,459}, %	433
{434,433,460}, %	434
{435,436,410}, %	435
{436,435,411,462}, %	436
{437,438,412}, %	437
{438,439,437,413,463}, %	438
{439,438,464}, %	439
{440,441,415}, %	440
{441,442,440}, %	441
{442,443,441,467}, %	442
{443,444,442,416,468}, %	443
{444,445,443,417,469}, %	444
{445,446,444,418}, %	445
{446,447,445,419,470}, %	446
{447,448,446,420,471}, %	447
{448,449,447,472}, %	448
{449,450,448,421,473}, %	449
{450,449,422,474}, %	450
{451,423,476}, %	451
{452,453,425}, %	452
{453,454,452,426,478}, %	453
{454,455,453,427,479}, %	454
{455,456,454,428,480}, %	455
{456,457,455,429,481}, %	456
{457,458,456,430,482}, %	457
{458,457,431,483}, %	458
{459,460,433,485}, %	459
{460,461,459,434,486}, %	460
{461,460}, %	461
{462,436,488}, %	462
{463,464,438}, %	463
{464,465,463,439,490}, %	464
{465,466,464,491}, %	465
{466,465,492}, %	466
{467,468,442,495}, %	467
{468,469,467,443,496}, %	468
{469,468,444}, %	469
{470,471,446}, %	470
{471,472,470,447,498}, %	471
{472,473,471,448,499}, %	472
{473,474,472,449,500}, %	473
{474,475,473,450,501}, %	474
{475,476,474,502}, %	475
{476,477,475,451,503}, %	476
{477,476,504}, %	477
{478,479,453}, %	478
{479,480,478,454,506}, %	479
{480,481,479,455}, %	480
{481,482,480,456}, %	481
{482,483,481,457,507}, %	482
{483,484,482,458,508}, %	483
{484,485,483,509}, %	484
{485,486,484,459,510}, %	485
{486,485,460,511}, %	486
{487,488,513}, %	487
{488,487,462,514}, %	488
{489,515}, %	489
{490,491,464,517}, %	490
{491,492,490,465,518}, %	491
{492,493,491,466,519}, %	492
{493,494,492,520}, %	493
{494,495,493,521}, %	494
{495,496,494,467,522}, %	495
{496,495,468,523}, %	496
{497,525}, %	497
{498,499,471,527}, %	498
{499,500,498,472,528}, %	499
{500,501,499,473,529}, %	500
{501,502,500,474,530}, %	501
{502,503,501,475,531}, %	502
{503,504,502,476,532}, %	503
{504,505,503,477,533}, %	504
{505,504,534}, %	505
{506,479,536}, %	506
{507,508,482,537}, %	507
{508,509,507,483,538}, %	508
{509,510,508,484,539}, %	509
{510,511,509,485,540}, %	510
{511,512,510,486,541}, %	511
{512,513,511,542}, %	512
{513,514,512,487,543}, %	513
{514,513,488,544}, %	514
{515,516,489,545}, %	515
{516,517,515,546}, %	516
{517,518,516,490}, %	517
{518,519,517,491,547}, %	518
{519,520,518,492,548}, %	519
{520,521,519,493,549}, %	520
{521,522,520,494,550}, %	521
{522,523,521,495,551}, %	522
{523,524,522,496,552}, %	523
{524,525,523,553}, %	524
{525,526,524,497,554}, %	525
{526,527,525,555}, %	526
{527,528,526,498,556}, %	527
{528,529,527,499,557}, %	528
{529,530,528,500}, %	529
{530,531,529,501,558}, %	530
{531,532,530,502,559}, %	531
{532,533,531,503}, %	532
{533,534,532,504,560}, %	533
{534,535,533,505,561}, %	534
{535,536,534,562}, %	535
{536,535,506,563}, %	536
{537,538,507,566}, %	537
{538,539,537,508}, %	538
{539,540,538,509,567}, %	539
{540,541,539,510,568}, %	540
{541,542,540,511}, %	541
{542,543,541,512,569}, %	542
{543,544,542,513,570}, %	543
{544,543,514,571}, %	544
{545,546,515,572}, %	545
{546,545,516,573}, %	546
{547,548,518}, %	547
{548,549,547,519,575}, %	548
{549,550,548,520,576}, %	549
{550,551,549,521,577}, %	550
{551,552,550,522}, %	551
{552,553,551,523,578}, %	552
{553,554,552,524,579}, %	553
{554,555,553,525,580}, %	554
{555,556,554,526,581}, %	555
{556,557,555,527,582}, %	556
{557,556,528,583}, %	557
{558,559,530,585}, %	558
{559,558,531,586}, %	559
{560,561,533,588}, %	560
{561,562,560,534,589}, %	561
{562,563,561,535}, %	562
{563,564,562,536,590}, %	563
{564,565,563}, %	564
{565,566,564}, %	565
{566,565,537,591}, %	566
{567,568,539,592}, %	567
{568,567,540,593}, %	568
{569,570,542,595}, %	569
{570,571,569,543}, %	570
{571,570,544,596}, %	571
{572,573,545,597}, %	572
{573,574,572,546}, %	573
{574,573,598}, %	574
{575,576,548,599}, %	575
{576,577,575,549,600}, %	576
{577,576,550,601}, %	577
{578,579,552}, %	578
{579,580,578,553}, %	579
{580,581,579,554,603}, %	580
{581,582,580,555,604}, %	581
{582,583,581,556,605}, %	582
{583,584,582,557}, %	583
{584,585,583,606}, %	584
{585,586,584,558}, %	585
{586,587,585,559,607}, %	586
{587,588,586}, %	587
{588,589,587,560,608}, %	588
{589,588,561,609}, %	589
{590,563,611}, %	590
{591,566,613}, %	591
{592,593,567,615}, %	592
{593,594,592,568}, %	593
{594,595,593,616}, %	594
{595,594,569,617}, %	595
{596,571,619}, %	596
{597,572,620}, %	597
{598,574,621}, %	598
{599,600,575,622}, %	599
{600,601,599,576,623}, %	600
{601,602,600,577}, %	601
{602,601}, %	602
{603,604,580,626}, %	603
{604,605,603,581,627}, %	604
{605,604,582}, %	605
{606,584,629}, %	606
{607,586,631}, %	607
{608,609,588,633}, %	608
{609,610,608,589,634}, %	609
{610,611,609,635}, %	610
{611,610,590}, %	611
{612,613}, %	612
{613,614,612,591,637}, %	613
{614,615,613,638}, %	614
{615,614,592,639}, %	615
{616,617,594,641}, %	616
{617,618,616,595,642}, %	617
{618,619,617,643}, %	618
{619,618,596,644}, %	619
{620,597,645}, %	620
{621,598,647}, %	621
{622,623,599,648}, %	622
{623,622,600,649}, %	623
{624,625,652}, %	624
{625,626,624,653}, %	625
{626,627,625,603,654}, %	626
{627,626,604,655}, %	627
{628,629,657}, %	628
{629,630,628,606,658}, %	629
{630,631,629,659}, %	630
{631,632,630,607,660}, %	631
{632,633,631,661}, %	632
{633,634,632,608,662}, %	633
{634,635,633,609}, %	634
{635,634,610,663}, %	635
{636,664}, %	636
{637,638,613,666}, %	637
{638,639,637,614}, %	638
{639,640,638,615,667}, %	639
{640,641,639,668}, %	640
{641,642,640,616,669}, %	641
{642,643,641,617,670}, %	642
{643,644,642,618,671}, %	643
{644,643,619,672}, %	644
{645,646,620,673}, %	645
{646,647,645,674}, %	646
{647,646,621,675}, %	647
{648,649,622}, %	648
{649,650,648,623}, %	649
{650,651,649,677}, %	650
{651,652,650,678}, %	651
{652,653,651,624}, %	652
{653,654,652,625,679}, %	653
{654,655,653,626,680}, %	654
{655,656,654,627,681}, %	655
{656,657,655,682}, %	656
{657,658,656,628,683}, %	657
{658,659,657,629}, %	658
{659,660,658,630,684}, %	659
{660,661,659,631}, %	660
{661,662,660,632}, %	661
{662,661,633,685}, %	662
{663,635}, %	663
{664,665,636,688}, %	664
{665,666,664,689}, %	665
{666,665,637,690}, %	666
{667,668,639,692}, %	667
{668,669,667,640,693}, %	668
{669,670,668,641,694}, %	669
{670,671,669,642}, %	670
{671,672,670,643}, %	671
{672,671,644,695}, %	672
{673,674,645,696}, %	673
{674,675,673,646,697}, %	674
{675,676,674,647,698}, %	675
{676,675,699}, %	676
{677,678,650,701}, %	677
{678,677,651,702}, %	678
{679,680,653,704}, %	679
{680,681,679,654,705}, %	680
{681,682,680,655,706}, %	681
{682,683,681,656,707}, %	682
{683,682,657}, %	683
{684,659,708}, %	684
{685,686,662,711}, %	685
{686,685,712}, %	686
{687,688,714}, %	687
{688,689,687,664,715}, %	688
{689,690,688,665,716}, %	689
{690,691,689,666}, %	690
{691,692,690,717}, %	691
{692,693,691,667,718}, %	692
{693,694,692,668,719}, %	693
{694,693,669}, %	694
{695,672}, %	695
{696,697,673,722}, %	696
{697,698,696,674}, %	697
{698,699,697,675,723}, %	698
{699,698,676,724}, %	699
{700,701}, %	700
{701,702,700,677}, %	701
{702,703,701,678,726}, %	702
{703,704,702,727}, %	703
{704,705,703,679,728}, %	704
{705,706,704,680,729}, %	705
{706,707,705,681,730}, %	706
{707,706,682,731}, %	707
{708,709,684,733}, %	708
{709,710,708,734}, %	709
{710,711,709,735}, %	710
{711,712,710,685,736}, %	711
{712,713,711,686}, %	712
{713,714,712,737}, %	713
{714,715,713,687,738}, %	714
{715,716,714,688,739}, %	715
{716,715,689,740}, %	716
{717,718,691,741}, %	717
{718,719,717,692,742}, %	718
{719,718,693,743}, %	719
{720,721,745}, %	720
{721,720,746}, %	721
{722,696,748}, %	722
{723,724,698,749}, %	723
{724,725,723,699}, %	724
{725,724}, %	725
{726,727,702,751}, %	726
{727,728,726,703,752}, %	727
{728,729,727,704}, %	728
{729,730,728,705}, %	729
{730,731,729,706,753}, %	730
{731,732,730,707,754}, %	731
{732,731,755}, %	732
{733,734,708,756}, %	733
{734,735,733,709}, %	734
{735,736,734,710,757}, %	735
{736,735,711,758}, %	736
{737,738,713,759}, %	737
{738,739,737,714}, %	738
{739,740,738,715,760}, %	739
{740,739,716,761}, %	740
{741,742,717,763}, %	741
{742,743,741,718}, %	742
{743,744,742,719,764}, %	743
{744,745,743}, %	744
{745,746,744,720,765}, %	745
{746,747,745,721,766}, %	746
{747,746,767}, %	747
{748,722,768}, %	748
{749,723,770}, %	749
{750,751,772}, %	750
{751,752,750,726,773}, %	751
{752,751,727,774}, %	752
{753,754,730,777}, %	753
{754,755,753,731}, %	754
{755,754,732}, %	755
{756,733,779}, %	756
{757,758,735,780}, %	757
{758,757,736,781}, %	758
{759,737}, %	759
{760,761,739,783}, %	760
{761,762,760,740,784}, %	761
{762,763,761,785}, %	762
{763,762,741,786}, %	763
{764,743,788}, %	764
{765,766,745,790}, %	765
{766,767,765,746,791}, %	766
{767,766,747}, %	767
{768,769,748,792}, %	768
{769,770,768,793}, %	769
{770,769,749}, %	770
{771,772,796}, %	771
{772,773,771,750,797}, %	772
{773,774,772,751,798}, %	773
{774,775,773,752,799}, %	774
{775,776,774,800}, %	775
{776,777,775,801}, %	776
{777,776,753,802}, %	777
{778,779,805}, %	778
{779,778,756,806}, %	779
{780,781,757,808}, %	780
{781,782,780,758,809}, %	781
{782,781,810}, %	782
{783,784,760,813}, %	783
{784,785,783,761,814}, %	784
{785,786,784,762,815}, %	785
{786,787,785,763,816}, %	786
{787,788,786,817}, %	787
{788,789,787,764}, %	788
{789,790,788}, %	789
{790,791,789,765,818}, %	790
{791,790,766,819}, %	791
{792,793,768}, %	792
{793,792,769}, %	793
{794,795}, %	794
{795,796,794}, %	795
{796,797,795,771}, %	796
{797,798,796,772}, %	797
{798,799,797,773}, %	798
{799,800,798,774}, %	799
{800,801,799,775}, %	800
{801,802,800,776}, %	801
{802,803,801,777}, %	802
{803,804,802}, %	803
{804,805,803}, %	804
{805,806,804,778}, %	805
{806,807,805,779}, %	806
{807,808,806}, %	807
{808,809,807,780}, %	808
{809,810,808,781}, %	809
{810,811,809,782}, %	810
{811,812,810}, %	811
{812,813,811}, %	812
{813,814,812,783}, %	813
{814,815,813,784}, %	814
{815,816,814,785}, %	815
{816,817,815,786}, %	816
{817,816,787}, %	817
{818,819,790}, %	818
{819,820,818,791}, %	819
{820,819}, %	820
];
k=10;
